DIMENSION: 70
25
45
39
61
40
9
27
46
30
20
14
44
68
17
43
41
6
42
18
4
2
7
32
3
28
8
26
49
55
19
24
15
57
66
63
22
59
38
69
31
13
29
70
35
36
1
16
47
23
58
37
50
51
65
56
11
67
48
62
54
33
34
21
12
60
52
10
5
53
